1 25.0 1050.0
2 450.0 950.0
3 480.0 1100.0
4 675.0 1200.0
5 1050.0 900.0
6 1300.0 875.0
7 1450.0 750.0
8 1500.0 500.0
9 1600.0 300.0
10 1400.0 150.0
11 1150.0 250.0
12 850.0 250.0
13 675.0 50.0
14 500.0 25.0
15 300.0 180.0
16 180.0 370.0
17 140.0 635.0
18 50.0 700.0
19 800.0 1050.0
20 1000.0 1250.0